n_trains = 20;
n_tracks = 16;
tracks = [{1},{2},{3},{4},{5},{6},{7},{8},{9},{10},{11},{12},{13},{14},{15},{16, 17, 18, 19, 20}];
arrival_order = [15, 4, 7, 16, 11, 12, 3, 5, 9, 1, 6, 18, 10, 13, 20, 14, 19, 8, 17, 2];
departure_order = [20, 19, 18, 17, 16, 15, 14, 13, 12, 11, 10, 9, 8, 7, 6, 5, 4, 3, 2, 1];
